GVRP/M-n121-k7-C41-V3.vrp
NAME: M-n121-k7
COMMENT: M and G instances of Bektas et al. (2011)
TYPE: GVRP
DIMENSION: 121
EDGE_WEIGHT_TYPE: EUC_2D
VEHICLES: 3
CAPACITY: 200
NODE_COORD_SECTION
1	10	45
2	25	1
3	25	3
4	31	5
5	32	5
6	31	7
7	32	9
8	34	9
9	46	9
10	35	7
11	34	6
12	35	5
13	47	6
14	40	5
15	39	3
16	36	3
17	73	6
18	73	8
19	24	36
20	76	6
21	76	10
22	76	13
23	78	3
24	78	9
25	79	3
26	79	5
27	79	11
28	82	3
29	82	7
30	90	15
31	84	3
32	84	5
33	84	9
34	85	1
35	87	5
36	85	8
37	87	7
38	86	41
39	86	44
40	86	46
41	85	55
42	89	43
43	89	46
44	89	52
45	92	42
46	92	52
47	94	42
48	94	44
49	94	48
50	96	42
51	99	46
52	99	50
53	83	80
54	83	83
55	85	81
56	85	85
57	85	89
58	87	80
59	87	86
60	90	77
61	90	88
62	93	82
63	93	84
64	93	89
65	94	86
66	95	80
67	99	89
68	37	83
69	50	80
70	35	85
71	35	87
72	44	86
73	46	89
74	46	83
75	46	87
76	46	89
77	48	83
78	50	85
79	50	88
80	54	86
81	54	90
82	10	35
83	10	40
84	18	30
85	17	35
86	16	38
87	14	40
88	15	42
89	11	42
90	18	40
91	21	39
92	20	40
93	18	41
94	20	44
95	22	44
96	16	45
97	20	45
98	25	45
99	30	55
100	20	50
101	22	51
102	18	49
103	16	48
104	20	55
105	18	53
106	14	50
107	15	51
108	16	54
109	28	33
110	33	38
111	30	50
112	13	40
113	15	36
114	18	31
115	25	37
116	30	46
117	25	52
118	16	33
119	25	35
120	5	40
121	5	50
DEMAND_SECTION
1	0
2	16
3	16
4	11
5	11
6	11
7	10
8	10
9	18
10	10
11	10
12	10
13	18
14	14
15	14
16	14
17	16
18	16
19	10
20	16
21	9
22	9
23	12
24	9
25	12
26	12
27	9
28	7
29	4
30	9
31	7
32	7
33	4
34	7
35	7
36	4
37	4
38	16
39	16
40	15
41	17
42	15
43	15
44	12
45	8
46	12
47	8
48	8
49	12
50	8
51	12
52	12
53	11
54	11
55	11
56	13
57	13
58	11
59	13
60	19
61	11
62	13
63	13
64	11
65	11
66	13
67	13
68	15
69	15
70	15
71	15
72	15
73	15
74	15
75	15
76	15
77	15
78	15
79	6
80	6
81	6
82	7
83	11
84	9
85	9
86	11
87	11
88	11
89	11
90	11
91	11
92	11
93	11
94	11
95	11
96	9
97	11
98	11
99	12
100	9
101	9
102	9
103	9
104	7
105	7
106	9
107	7
108	7
109	10
110	13
111	9
112	11
113	9
114	9
115	10
116	9
117	9
118	9
119	10
120	20
121	13
MUTUALLY_EXCLUSIVE_GROUP_SECTION
1	1
2	3
3	3
4	42
5	42
6	42
7	18
8	18
9	9
10	18
11	18
12	18
13	9
14	27
15	27
16	27
17	11
18	11
19	26
20	11
21	28
22	28
23	34
24	28
25	34
26	34
27	28
28	16
29	29
30	4
31	16
32	16
33	29
34	16
35	16
36	29
37	29
38	21
39	21
40	35
41	7
42	35
43	35
44	32
45	14
46	32
47	14
48	14
49	32
50	14
51	24
52	24
53	12
54	12
55	12
56	25
57	25
58	12
59	25
60	36
61	37
62	22
63	22
64	37
65	37
66	22
67	2
68	5
69	20
70	5
71	5
72	30
73	30
74	30
75	30
76	30
77	20
78	20
79	10
80	10
81	10
82	38
83	23
84	13
85	13
86	39
87	23
88	23
89	23
90	39
91	39
92	39
93	39
94	17
95	17
96	40
97	17
98	17
99	15
100	33
101	33
102	40
103	40
104	19
105	19
106	40
107	19
108	19
109	26
110	8
111	31
112	23
113	13
114	13
115	26
116	31
117	33
118	13
119	26
120	41
121	6
DEPOT_SECTION
1
EOF
