GVRP/M-n121-k7-C41-V3.sol
Route #1: 120 119 81 112 85 87 93 95
Route #2: 2 3 9 13 12 17 23 25 31 32 29 46 50 48 42 38 115
Route #3: 114 109 40 59 61 66 63 55 53 79 77 73 67 98 116 104
Cost: 527
Comment: Known optimal, see Freitas et al. (2023; https://doi.org/10.1016/j.cor.2022.106040) for details
